16 965
525 7 482 7 394 7 212 9 29 11 822 15 625 21
528 7 485 7 369 7 124 9 953 13
525 7 482 7 365 7 115 9 943 13
525 7 482 7 365 7 115 9 943 13
535 8 492 8 400 9 235 10 72 14 905 18 837 25 708 80
535 8 492 8 400 9 235 10 72 14 905 18 837 25 708 80
525 7 482 7 394 7 212 9 29 11 822 15 623 21
525 7 479 7 355 7 106 9 927 13
525 7 477 7 391 7 245 9 91 11 4 15 810 21 607 30
525 7 479 7 358 7 163 9 10 11 784 18
525 7 445 7 263 7 62 9 888 11 718 18
535 8 493 8 407 9 310 10 223 16 94 22
525 7 482 7 365 7 115 9 946 13
525 7 502 7 412 7 255 9 80 11 874 18
525 7 502 7 412 7 255 9 80 11 874 18
525 7 476 7 354 7 155 9 5 11 838 15 650 20 567 28
